185
0 179 63 123 73 65 5 16 15 45 
55 52 75 30 160 34 153 12 32 9 
2 116 172 114 64 44 60 68 89 11 
72 178 177 99 57 41 76 100 170 27 
71 40 139 145 131 135 25 46 85 152 
121 148 19 138 136 156 67 18 133 8 
42 124 23 144 111 166 105 54 157 80 
167 129 53 173 175 49 58 97 115 147 
21 127 102 180 137 96 101 113 98 50 
48 159 29 141 171 103 6 56 118 108 
13 66 142 140 84 70 163 10 69 74 
162 134 165 168 3 130 91 104 31 95 
24 161 169 150 87 28 22 182 92 33 
51 90 4 110 17 81 128 149 155 36 
94 164 184 82 37 183 35 106 125 143 
174 62 61 120 47 88 1 181 79 7 
38 119 43 109 146 78 158 39 59 117 
86 122 126 20 132 14 83 77 26 176 
93 154 107 151 112 
